\ENCODING=ISO-8859-1
\Problem name: ilog.cplex

Maximize
 obj: 853 x(0)#0 + 558 x(1)#1 + 747 x(2)#2 + 426 x(3)#3 + 537 x(4)#4
      + 510 x(5)#5 + 1026 x(6)#6 + 687 x(7)#7 + 715 x(8)#8 + 788 x(9)#9
      + 609 x(10)#10 + 750 x(11)#11 + 714 x(12)#12 + 627 x(13)#13
      + 611 x(14)#14 + 868 x(15)#15 + 813 x(16)#16 + 961 x(17)#17
      + 782 x(18)#18 + 668 x(19)#19 + 864 x(20)#20 + 607 x(21)#21
      + 851 x(22)#22 + 512 x(23)#23 + 542 x(24)#24 + 800 x(25)#25
      + 745 x(26)#26 + 521 x(27)#27 + 979 x(28)#28 + 789 x(29)#29
      + 806 x(30)#30 + 781 x(31)#31 + 982 x(32)#32 + 1048 x(33)#33
      + 950 x(34)#34 + 643 x(35)#35 + 542 x(36)#36 + 690 x(37)#37
      + 373 x(38)#38 + 813 x(39)#39 + 507 x(40)#40 + 898 x(41)#41
      + 738 x(42)#42 + 1029 x(43)#43 + 567 x(44)#44 + 497 x(45)#45
      + 539 x(46)#46 + 1017 x(47)#47 + 976 x(48)#48 + 635 x(49)#49
      + 858 x(50)#50 + 732 x(51)#51 + 853 x(52)#52 + 694 x(53)#53
      + 650 x(54)#54 + 904 x(55)#55 + 745 x(56)#56 + 853 x(57)#57
      + 635 x(58)#58 + 825 x(59)#59 + 818 x(60)#60 + 952 x(61)#61
      + 908 x(62)#62 + 779 x(63)#63 + 762 x(64)#64 + 583 x(65)#65
      + 415 x(66)#66 + 1007 x(67)#67 + 487 x(68)#68 + 567 x(69)#69
      + 472 x(70)#70 + 657 x(71)#71 + 627 x(72)#72 + 633 x(73)#73
      + 690 x(74)#74 + 494 x(75)#75 + 627 x(76)#76 + 1117 x(77)#77
      + 735 x(78)#78 + 997 x(79)#79 + 728 x(80)#80 + 925 x(81)#81
      + 863 x(82)#82 + 556 x(83)#83 + 625 x(84)#84 + 1024 x(85)#85
      + 813 x(86)#86 + 603 x(87)#87 + 835 x(88)#88 + 614 x(89)#89
      + 958 x(90)#90 + 899 x(91)#91 + 896 x(92)#92 + 786 x(93)#93
      + 1155 x(94)#94 + 585 x(95)#95 + 517 x(96)#96 + 942 x(97)#97
      + 761 x(98)#98 + 837 x(99)#99
Subject To
 c1:  131 x(0)#0 + 374 x(1)#1 + 804 x(2)#2 + 27 x(3)#3 + 719 x(4)#4 + 55 x(5)#5
      + 32 x(6)#6 + 361 x(7)#7 + 636 x(8)#8 + 475 x(9)#9 + 944 x(10)#10
      + 638 x(11)#11 + 890 x(12)#12 + 24 x(13)#13 + 971 x(14)#14 + 149 x(15)#15
      + 249 x(16)#16 + 659 x(17)#17 + 722 x(18)#18 + 660 x(19)#19
      + 745 x(20)#20 + 483 x(21)#21 + 805 x(22)#22 + 338 x(23)#23
      + 181 x(24)#24 + 772 x(25)#25 + 904 x(26)#26 + 783 x(27)#27
      + 891 x(28)#28 + 421 x(29)#29 + 133 x(30)#30 + 126 x(31)#31
      + 268 x(32)#32 + 857 x(33)#33 + 792 x(34)#34 + 243 x(35)#35
      + 756 x(36)#36 + 485 x(37)#37 + 245 x(38)#38 + 315 x(39)#39
      + 440 x(40)#40 + 94 x(41)#41 + 570 x(42)#42 + 992 x(43)#43 + 114 x(44)#44
      + 40 x(45)#45 + 780 x(46)#46 + 834 x(47)#47 + 918 x(48)#48 + 279 x(49)#49
      + 35 x(50)#50 + 789 x(51)#51 + 442 x(52)#52 + 430 x(53)#53 + 812 x(54)#54
      + 212 x(55)#55 + 560 x(56)#56 + 32 x(57)#57 + 362 x(58)#58 + 937 x(59)#59
      + 627 x(60)#60 + 537 x(61)#61 + 939 x(62)#62 + 145 x(63)#63
      + 562 x(64)#64 + 388 x(65)#65 + 644 x(66)#66 + 25 x(67)#67 + 895 x(68)#68
      + 931 x(69)#69 + 21 x(70)#70 + 171 x(71)#71 + 151 x(72)#72 + 744 x(73)#73
      + 858 x(74)#74 + 103 x(75)#75 + 263 x(76)#76 + 766 x(77)#77
      + 606 x(78)#78 + 722 x(79)#79 + 555 x(80)#80 + 863 x(81)#81 + 47 x(82)#82
      + 599 x(83)#83 + 270 x(84)#84 + 596 x(85)#85 + 802 x(86)#86
      + 232 x(87)#87 + 273 x(88)#88 + 94 x(89)#89 + 405 x(90)#90 + 466 x(91)#91
      + 611 x(92)#92 + 223 x(93)#93 + 727 x(94)#94 + 995 x(95)#95
      + 924 x(96)#96 + 879 x(97)#97 + 191 x(98)#98 + 445 x(99)#99 <= 25015
 c2:  538 x(0)#0 + 320 x(1)#1 + 879 x(2)#2 + 160 x(3)#3 + 488 x(4)#4
      + 88 x(5)#5 + 319 x(6)#6 + 857 x(7)#7 + 602 x(8)#8 + 482 x(9)#9
      + 328 x(10)#10 + 157 x(11)#11 + 497 x(12)#12 + 868 x(13)#13
      + 991 x(14)#14 + 995 x(15)#15 + 934 x(16)#16 + 262 x(17)#17
      + 198 x(18)#18 + 196 x(19)#19 + 616 x(20)#20 + 246 x(21)#21
      + 794 x(22)#22 + 403 x(23)#23 + 493 x(24)#24 + 30 x(25)#25 + 966 x(26)#26
      + 509 x(27)#27 + 883 x(28)#28 + 795 x(29)#29 + 762 x(30)#30 + 7 x(31)#31
      + 156 x(32)#32 + 748 x(33)#33 + 147 x(34)#34 + 418 x(35)#35 + 91 x(36)#36
      + 39 x(37)#37 + 730 x(38)#38 + 431 x(39)#39 + 465 x(40)#40 + 707 x(41)#41
      + 12 x(42)#42 + 690 x(43)#43 + 302 x(44)#44 + 997 x(45)#45 + 363 x(46)#46
      + 9 x(47)#47 + 208 x(48)#48 + 107 x(49)#49 + 73 x(50)#50 + 649 x(51)#51
      + 877 x(52)#52 + 561 x(53)#53 + 17 x(54)#54 + 604 x(55)#55 + 65 x(56)#56
      + 375 x(57)#57 + 11 x(58)#58 + 493 x(59)#59 + 261 x(60)#60 + 615 x(61)#61
      + 253 x(62)#62 + 735 x(63)#63 + 61 x(64)#64 + 712 x(65)#65 + 339 x(66)#66
      + 592 x(67)#67 + 824 x(68)#68 + 596 x(69)#69 + 594 x(70)#70
      + 362 x(71)#71 + 798 x(72)#72 + 57 x(73)#73 + 368 x(74)#74 + 619 x(75)#75
      + 452 x(76)#76 + 274 x(77)#77 + 619 x(78)#78 + 729 x(79)#79
      + 638 x(80)#80 + 979 x(81)#81 + 611 x(82)#82 + 807 x(83)#83
      + 192 x(84)#84 + 663 x(85)#85 + 129 x(86)#86 + 822 x(87)#87
      + 885 x(88)#88 + 609 x(89)#89 + 396 x(90)#90 + 964 x(91)#91
      + 732 x(92)#92 + 908 x(93)#93 + 520 x(94)#94 + 781 x(95)#95
      + 870 x(96)#96 + 411 x(97)#97 + 77 x(98)#98 + 540 x(99)#99 <= 24701
 c3:  704 x(0)#0 + 776 x(1)#1 + 448 x(2)#2 + 848 x(3)#3 + 544 x(4)#4
      + 621 x(5)#5 + 916 x(6)#6 + 446 x(7)#7 + 881 x(8)#8 + 508 x(9)#9
      + 782 x(10)#10 + 603 x(11)#11 + 679 x(12)#12 + 127 x(13)#13
      + 108 x(14)#14 + 934 x(15)#15 + 762 x(16)#16 + 959 x(17)#17
      + 147 x(18)#18 + 95 x(19)#19 + 587 x(20)#20 + 21 x(21)#21 + 234 x(22)#22
      + 450 x(23)#23 + 959 x(24)#24 + 721 x(25)#25 + 682 x(26)#26
      + 425 x(27)#27 + 37 x(28)#28 + 910 x(29)#29 + 634 x(30)#30 + 629 x(31)#31
      + 506 x(32)#32 + 610 x(33)#33 + 556 x(34)#34 + 610 x(35)#35
      + 791 x(36)#36 + 583 x(37)#37 + 897 x(38)#38 + 189 x(39)#39
      + 983 x(40)#40 + 59 x(41)#41 + 837 x(42)#42 + 974 x(43)#43 + 19 x(44)#44
      + 735 x(45)#45 + 275 x(46)#46 + 966 x(47)#47 + 634 x(48)#48
      + 641 x(49)#49 + 119 x(50)#50 + 896 x(51)#51 + 873 x(52)#52
      + 762 x(53)#53 + 285 x(54)#54 + 919 x(55)#55 + 62 x(56)#56 + 191 x(57)#57
      + 892 x(58)#58 + 539 x(59)#59 + 556 x(60)#60 + 976 x(61)#61
      + 625 x(62)#62 + 898 x(63)#63 + 157 x(64)#64 + 451 x(65)#65
      + 750 x(66)#66 + 496 x(67)#67 + 396 x(68)#68 + 365 x(69)#69
      + 359 x(70)#70 + 302 x(71)#71 + 837 x(72)#72 + 533 x(73)#73
      + 568 x(74)#74 + 476 x(75)#75 + 723 x(76)#76 + 849 x(77)#77
      + 473 x(78)#78 + 351 x(79)#79 + 616 x(80)#80 + 222 x(81)#81
      + 820 x(82)#82 + 985 x(83)#83 + 57 x(84)#84 + 456 x(85)#85 + 956 x(86)#86
      + 315 x(87)#87 + 81 x(88)#88 + 469 x(89)#89 + 261 x(90)#90 + 50 x(91)#91
      + 258 x(92)#92 + 778 x(93)#93 + 852 x(94)#94 + 668 x(95)#95
      + 507 x(96)#96 + 433 x(97)#97 + 285 x(98)#98 + 482 x(99)#99 <= 27636
 c4:  53 x(0)#0 + 26 x(1)#1 + 302 x(2)#2 + 219 x(3)#3 + 212 x(4)#4 + 629 x(5)#5
      + 255 x(6)#6 + 636 x(7)#7 + 389 x(8)#8 + 760 x(9)#9 + 637 x(10)#10
      + 745 x(11)#11 + 668 x(12)#12 + 461 x(13)#13 + 827 x(14)#14
      + 250 x(15)#15 + 986 x(16)#16 + 592 x(17)#17 + 304 x(18)#18
      + 862 x(19)#19 + 281 x(20)#20 + 724 x(21)#21 + 471 x(22)#22
      + 552 x(23)#23 + 815 x(24)#24 + 883 x(25)#25 + 457 x(26)#26
      + 700 x(27)#27 + 164 x(28)#28 + 247 x(29)#29 + 754 x(30)#30
      + 136 x(31)#31 + 764 x(32)#32 + 483 x(33)#33 + 301 x(34)#34
      + 650 x(35)#35 + 562 x(36)#36 + 289 x(37)#37 + 137 x(38)#38
      + 806 x(39)#39 + 995 x(40)#40 + 618 x(41)#41 + 121 x(42)#42
      + 780 x(43)#43 + 974 x(44)#44 + 438 x(45)#45 + 444 x(46)#46
      + 171 x(47)#47 + 813 x(48)#48 + 362 x(49)#49 + 193 x(50)#50
      + 687 x(51)#51 + 308 x(52)#52 + 979 x(53)#53 + 160 x(54)#54
      + 460 x(55)#55 + 436 x(56)#56 + 795 x(57)#57 + 1000 x(58)#58
      + 496 x(59)#59 + 886 x(60)#60 + 827 x(61)#61 + 708 x(62)#62
      + 849 x(63)#63 + 136 x(64)#64 + 666 x(65)#65 + 349 x(66)#66
      + 212 x(67)#67 + 801 x(68)#68 + 777 x(69)#69 + 22 x(70)#70 + 233 x(71)#71
      + 516 x(72)#72 + 743 x(73)#73 + 922 x(74)#74 + 63 x(75)#75 + 407 x(76)#76
      + 483 x(77)#77 + 238 x(78)#78 + 355 x(79)#79 + 296 x(80)#80
      + 820 x(81)#81 + 206 x(82)#82 + 432 x(83)#83 + 340 x(84)#84
      + 970 x(85)#85 + 1000 x(86)#86 + 13 x(87)#87 + 167 x(88)#88
      + 187 x(89)#89 + 386 x(90)#90 + 769 x(91)#91 + 891 x(92)#92
      + 429 x(93)#93 + 965 x(94)#94 + 375 x(95)#95 + 545 x(96)#96
      + 599 x(97)#97 + 550 x(98)#98 + 34 x(99)#99 <= 25693
 c5:  64 x(0)#0 + 141 x(1)#1 + 216 x(2)#2 + 455 x(3)#3 + 536 x(4)#4
      + 391 x(5)#5 + 387 x(6)#6 + 180 x(7)#7 + 757 x(8)#8 + 9 x(9)#9
      + 42 x(10)#10 + 700 x(11)#11 + 501 x(12)#12 + 497 x(13)#13 + 272 x(14)#14
      + 480 x(15)#15 + 704 x(16)#16 + 754 x(17)#17 + 929 x(18)#18
      + 117 x(19)#19 + 130 x(20)#20 + 362 x(21)#21 + 935 x(22)#22
      + 743 x(23)#23 + 82 x(24)#24 + 94 x(25)#25 + 371 x(26)#26 + 361 x(27)#27
      + 743 x(28)#28 + 473 x(29)#29 + 655 x(30)#30 + 986 x(31)#31
      + 871 x(32)#32 + 446 x(33)#33 + 517 x(34)#34 + 902 x(35)#35
      + 711 x(36)#36 + 451 x(37)#37 + 42 x(38)#38 + 458 x(39)#39 + 42 x(40)#40
      + 450 x(41)#41 + 184 x(42)#42 + 533 x(43)#43 + 563 x(44)#44
      + 550 x(45)#45 + 431 x(46)#46 + 654 x(47)#47 + 648 x(48)#48
      + 474 x(49)#49 + 841 x(50)#50 + 730 x(51)#51 + 748 x(52)#52
      + 793 x(53)#53 + 79 x(54)#54 + 82 x(55)#55 + 819 x(56)#56 + 645 x(57)#57
      + 270 x(58)#58 + 743 x(59)#59 + 18 x(60)#60 + 184 x(61)#61 + 297 x(62)#62
      + 381 x(63)#63 + 502 x(64)#64 + 76 x(65)#65 + 222 x(66)#66 + 367 x(67)#67
      + 2 x(68)#68 + 747 x(69)#69 + 992 x(70)#70 + 200 x(71)#71 + 733 x(72)#72
      + 21 x(73)#73 + 24 x(74)#74 + 469 x(75)#75 + 690 x(76)#76 + 541 x(77)#77
      + 906 x(78)#78 + 524 x(79)#79 + 413 x(80)#80 + 219 x(81)#81
      + 968 x(82)#82 + 405 x(83)#83 + 517 x(84)#84 + 423 x(85)#85
      + 129 x(86)#86 + 194 x(87)#87 + 918 x(88)#88 + 226 x(89)#89
      + 736 x(90)#90 + 584 x(91)#91 + 731 x(92)#92 + 261 x(93)#93
      + 988 x(94)#94 + 43 x(95)#95 + 390 x(96)#96 + 662 x(97)#97 + 658 x(98)#98
      + 931 x(99)#99 <= 23518
 c6:  440 x(0)#0 + 502 x(1)#1 + 757 x(2)#2 + 152 x(3)#3 + 223 x(4)#4
      + 491 x(5)#5 + 881 x(6)#6 + 22 x(7)#7 + 394 x(8)#8 + 734 x(9)#9
      + 266 x(10)#10 + 400 x(11)#11 + 925 x(12)#12 + 700 x(13)#13
      + 968 x(14)#14 + 359 x(15)#15 + 773 x(16)#16 + 293 x(17)#17
      + 582 x(18)#18 + 231 x(19)#19 + 347 x(20)#20 + 462 x(21)#21
      + 639 x(22)#22 + 846 x(23)#23 + 313 x(24)#24 + 167 x(25)#25
      + 120 x(26)#26 + 236 x(27)#27 + 654 x(28)#28 + 692 x(29)#29
      + 651 x(30)#30 + 104 x(31)#31 + 664 x(32)#32 + 644 x(33)#33
      + 504 x(34)#34 + 336 x(35)#35 + 590 x(36)#36 + 643 x(37)#37
      + 644 x(38)#38 + 758 x(39)#39 + 27 x(40)#40 + 24 x(41)#41 + 727 x(42)#42
      + 36 x(43)#43 + 34 x(44)#44 + 110 x(45)#45 + 831 x(46)#46 + 326 x(47)#47
      + 925 x(48)#48 + 378 x(49)#49 + 974 x(50)#50 + 17 x(51)#51 + 835 x(52)#52
      + 297 x(53)#53 + 579 x(54)#54 + 239 x(55)#55 + 268 x(56)#56
      + 231 x(57)#57 + 964 x(58)#58 + 736 x(59)#59 + 405 x(60)#60
      + 367 x(61)#61 + 287 x(62)#62 + 455 x(63)#63 + 85 x(64)#64 + 198 x(65)#65
      + 746 x(66)#66 + 682 x(67)#67 + 140 x(68)#68 + 582 x(69)#69
      + 928 x(70)#70 + 911 x(71)#71 + 14 x(72)#72 + 243 x(73)#73 + 617 x(74)#74
      + 926 x(75)#75 + 43 x(76)#76 + 728 x(77)#77 + 741 x(78)#78 + 939 x(79)#79
      + 147 x(80)#80 + 823 x(81)#81 + 328 x(82)#82 + 424 x(83)#83
      + 492 x(84)#84 + 994 x(85)#85 + 958 x(86)#86 + 677 x(87)#87
      + 940 x(88)#88 + 20 x(89)#89 + 441 x(90)#90 + 758 x(91)#91 + 677 x(92)#92
      + 974 x(93)#93 + 150 x(94)#94 + 144 x(95)#95 + 948 x(96)#96
      + 659 x(97)#97 + 643 x(98)#98 + 932 x(99)#99 <= 25416
 c7:  864 x(0)#0 + 195 x(1)#1 + 79 x(2)#2 + 231 x(3)#3 + 82 x(4)#4 + 624 x(5)#5
      + 911 x(6)#6 + 311 x(7)#7 + 480 x(8)#8 + 82 x(9)#9 + 684 x(10)#10
      + 190 x(11)#11 + 761 x(12)#12 + 939 x(13)#13 + 710 x(14)#14
      + 228 x(15)#15 + 424 x(16)#16 + 297 x(17)#17 + 366 x(18)#18
      + 126 x(19)#19 + 978 x(20)#20 + 199 x(21)#21 + 582 x(22)#22 + 32 x(23)#23
      + 422 x(24)#24 + 586 x(25)#25 + 89 x(26)#26 + 459 x(27)#27 + 574 x(28)#28
      + 924 x(29)#29 + 235 x(30)#30 + 735 x(31)#31 + 674 x(32)#32
      + 387 x(33)#33 + 775 x(34)#34 + 671 x(35)#35 + 31 x(36)#36 + 798 x(37)#37
      + 2 x(38)#38 + 640 x(39)#39 + 257 x(40)#40 + 253 x(41)#41 + 138 x(42)#42
      + 663 x(43)#43 + 622 x(44)#44 + 206 x(45)#45 + 365 x(46)#46
      + 485 x(47)#47 + 886 x(48)#48 + 271 x(49)#49 + 964 x(50)#50
      + 147 x(51)#51 + 564 x(52)#52 + 135 x(53)#53 + 836 x(54)#54
      + 493 x(55)#55 + 814 x(56)#56 + 290 x(57)#57 + 216 x(58)#58 + 48 x(59)#59
      + 356 x(60)#60 + 520 x(61)#61 + 977 x(62)#62 + 251 x(63)#63
      + 938 x(64)#64 + 613 x(65)#65 + 352 x(66)#66 + 936 x(67)#67
      + 501 x(68)#68 + 102 x(69)#69 + 857 x(70)#70 + 567 x(71)#71 + 47 x(72)#72
      + 872 x(73)#73 + 80 x(74)#74 + 534 x(75)#75 + 122 x(76)#76 + 505 x(77)#77
      + 424 x(78)#78 + 458 x(79)#79 + 359 x(80)#80 + 299 x(81)#81
      + 639 x(82)#82 + 428 x(83)#83 + 260 x(84)#84 + 596 x(85)#85
      + 227 x(86)#86 + 53 x(87)#87 + 487 x(88)#88 + 727 x(89)#89 + 139 x(90)#90
      + 383 x(91)#91 + 757 x(92)#92 + 447 x(93)#93 + 902 x(94)#94
      + 617 x(95)#95 + 16 x(96)#96 + 881 x(97)#97 + 252 x(98)#98 + 392 x(99)#99
      <= 22952
 c8:  204 x(0)#0 + 503 x(1)#1 + 93 x(2)#2 + 261 x(3)#3 + 905 x(4)#4
      + 124 x(5)#5 + 517 x(6)#6 + 339 x(7)#7 + 798 x(8)#8 + 883 x(9)#9
      + 125 x(10)#10 + 389 x(11)#11 + 9 x(12)#12 + 478 x(13)#13 + 776 x(14)#14
      + 481 x(15)#15 + 929 x(16)#16 + 519 x(17)#17 + 499 x(18)#18
      + 599 x(19)#19 + 991 x(20)#20 + 856 x(21)#21 + 497 x(22)#22
      + 296 x(23)#23 + 313 x(24)#24 + 570 x(25)#25 + 457 x(26)#26
      + 407 x(27)#27 + 653 x(28)#28 + 216 x(29)#29 + 873 x(30)#30
      + 768 x(31)#31 + 621 x(32)#32 + 906 x(33)#33 + 742 x(34)#34
      + 866 x(35)#35 + 414 x(36)#36 + 904 x(37)#37 + 187 x(38)#38
      + 206 x(39)#39 + 184 x(40)#40 + 557 x(41)#41 + 125 x(42)#42
      + 260 x(43)#43 + 462 x(44)#44 + 527 x(45)#45 + 327 x(46)#46
      + 947 x(47)#47 + 739 x(48)#48 + 239 x(49)#49 + 667 x(50)#50
      + 765 x(51)#51 + 336 x(52)#52 + 117 x(53)#53 + 659 x(54)#54
      + 979 x(55)#55 + 632 x(56)#56 + 921 x(57)#57 + 739 x(58)#58
      + 246 x(59)#59 + 48 x(60)#60 + 193 x(61)#61 + 111 x(62)#62 + 80 x(63)#63
      + 606 x(64)#64 + 78 x(65)#65 + 180 x(66)#66 + 966 x(67)#67 + 8 x(68)#68
      + 501 x(69)#69 + 87 x(70)#70 + 623 x(71)#71 + 194 x(72)#72 + 142 x(73)#73
      + 423 x(74)#74 + 497 x(75)#75 + 29 x(76)#76 + 878 x(77)#77 + 668 x(78)#78
      + 824 x(79)#79 + 930 x(80)#80 + 797 x(81)#81 + 236 x(82)#82
      + 621 x(83)#83 + 986 x(84)#84 + 39 x(85)#85 + 257 x(86)#86 + 216 x(87)#87
      + 858 x(88)#88 + 235 x(89)#89 + 956 x(90)#90 + 661 x(91)#91
      + 624 x(92)#92 + 173 x(93)#93 + 896 x(94)#94 + 240 x(95)#95
      + 321 x(96)#96 + 795 x(97)#97 + 198 x(98)#98 + 425 x(99)#99 <= 24601
 c9:  647 x(0)#0 + 682 x(1)#1 + 20 x(2)#2 + 437 x(3)#3 + 275 x(4)#4
      + 190 x(5)#5 + 669 x(6)#6 + 266 x(7)#7 + 710 x(8)#8 + 820 x(9)#9
      + 742 x(10)#10 + 169 x(11)#11 + 583 x(12)#12 + 96 x(13)#13 + 286 x(14)#14
      + 520 x(15)#15 + 555 x(16)#16 + 165 x(17)#17 + 187 x(18)#18
      + 382 x(19)#19 + 512 x(20)#20 + 112 x(21)#21 + 428 x(22)#22
      + 694 x(23)#23 + 496 x(24)#24 + 299 x(25)#25 + 418 x(26)#26
      + 288 x(27)#27 + 997 x(28)#28 + 626 x(29)#29 + 933 x(30)#30 + 11 x(31)#31
      + 673 x(32)#32 + 767 x(33)#33 + 744 x(34)#34 + 322 x(35)#35
      + 179 x(36)#36 + 654 x(37)#37 + 156 x(38)#38 + 481 x(39)#39
      + 193 x(40)#40 + 888 x(41)#41 + 222 x(42)#42 + 165 x(43)#43
      + 848 x(44)#44 + 745 x(45)#45 + 8 x(46)#46 + 487 x(47)#47 + 420 x(48)#48
      + 824 x(49)#49 + 376 x(50)#50 + 983 x(51)#51 + 649 x(52)#52
      + 625 x(53)#53 + 890 x(54)#54 + 360 x(55)#55 + 925 x(56)#56
      + 804 x(57)#57 + 598 x(58)#58 + 552 x(59)#59 + 939 x(60)#60
      + 683 x(61)#61 + 169 x(62)#62 + 772 x(63)#63 + 424 x(64)#64 + 93 x(65)#65
      + 284 x(66)#66 + 845 x(67)#67 + 803 x(68)#68 + 654 x(69)#69
      + 295 x(70)#70 + 28 x(71)#71 + 622 x(72)#72 + 403 x(73)#73 + 580 x(74)#74
      + 358 x(75)#75 + 647 x(76)#76 + 983 x(77)#77 + 547 x(78)#78 + 56 x(79)#79
      + 110 x(80)#80 + 895 x(81)#81 + 713 x(82)#82 + 114 x(83)#83
      + 628 x(84)#84 + 941 x(85)#85 + 191 x(86)#86 + 883 x(87)#87
      + 936 x(88)#88 + 863 x(89)#89 + 387 x(90)#90 + 256 x(91)#91
      + 985 x(92)#92 + 636 x(93)#93 + 105 x(94)#94 + 499 x(95)#95
      + 155 x(96)#96 + 316 x(97)#97 + 696 x(98)#98 + 861 x(99)#99 <= 25554
 c10: 273 x(0)#0 + 245 x(1)#1 + 372 x(2)#2 + 468 x(3)#3 + 366 x(4)#4 + 5 x(5)#5
      + 479 x(6)#6 + 883 x(7)#7 + 43 x(8)#8 + 218 x(9)#9 + 623 x(10)#10
      + 972 x(11)#11 + 840 x(12)#12 + 811 x(13)#13 + 117 x(14)#14
      + 462 x(15)#15 + 188 x(16)#16 + 933 x(17)#17 + 594 x(18)#18
      + 999 x(19)#19 + 474 x(20)#20 + 276 x(21)#21 + 2 x(22)#22 + 215 x(23)#23
      + 353 x(24)#24 + 864 x(25)#25 + 286 x(26)#26 + 658 x(27)#27
      + 810 x(28)#28 + 643 x(29)#29 + 763 x(30)#30 + 660 x(31)#31 + 95 x(32)#32
      + 579 x(33)#33 + 860 x(34)#34 + 409 x(35)#35 + 944 x(36)#36
      + 116 x(37)#37 + 384 x(38)#38 + 236 x(39)#39 + 637 x(40)#40
      + 563 x(41)#41 + 371 x(42)#42 + 723 x(43)#43 + 818 x(44)#44 + 19 x(45)#45
      + 773 x(46)#46 + 309 x(47)#47 + 830 x(48)#48 + 640 x(49)#49
      + 709 x(50)#50 + 651 x(51)#51 + 634 x(52)#52 + 860 x(53)#53
      + 619 x(54)#54 + 839 x(55)#55 + 794 x(56)#56 + 676 x(57)#57
      + 136 x(58)#58 + 224 x(59)#59 + 789 x(60)#60 + 762 x(61)#61
      + 534 x(62)#62 + 48 x(63)#63 + 308 x(64)#64 + 817 x(65)#65 + 39 x(66)#66
      + 899 x(67)#67 + 332 x(68)#68 + 178 x(69)#69 + 23 x(70)#70 + 736 x(71)#71
      + 563 x(72)#72 + 994 x(73)#73 + 40 x(74)#74 + 5 x(75)#75 + 636 x(76)#76
      + 751 x(77)#77 + 129 x(78)#78 + 829 x(79)#79 + 667 x(80)#80
      + 502 x(81)#81 + 558 x(82)#82 + 225 x(83)#83 + 272 x(84)#84
      + 446 x(85)#85 + 750 x(86)#86 + 127 x(87)#87 + 900 x(88)#88
      + 250 x(89)#89 + 494 x(90)#90 + 380 x(91)#91 + 716 x(92)#92
      + 218 x(93)#93 + 857 x(94)#94 + 730 x(95)#95 + 328 x(96)#96
      + 446 x(97)#97 + 372 x(98)#98 + 962 x(99)#99 <= 25478
Bounds
 0 <= x(0)#0 <= 1
 0 <= x(1)#1 <= 1
 0 <= x(2)#2 <= 1
 0 <= x(3)#3 <= 1
 0 <= x(4)#4 <= 1
 0 <= x(5)#5 <= 1
 0 <= x(6)#6 <= 1
 0 <= x(7)#7 <= 1
 0 <= x(8)#8 <= 1
 0 <= x(9)#9 <= 1
 0 <= x(10)#10 <= 1
 0 <= x(11)#11 <= 1
 0 <= x(12)#12 <= 1
 0 <= x(13)#13 <= 1
 0 <= x(14)#14 <= 1
 0 <= x(15)#15 <= 1
 0 <= x(16)#16 <= 1
 0 <= x(17)#17 <= 1
 0 <= x(18)#18 <= 1
 0 <= x(19)#19 <= 1
 0 <= x(20)#20 <= 1
 0 <= x(21)#21 <= 1
 0 <= x(22)#22 <= 1
 0 <= x(23)#23 <= 1
 0 <= x(24)#24 <= 1
 0 <= x(25)#25 <= 1
 0 <= x(26)#26 <= 1
 0 <= x(27)#27 <= 1
 0 <= x(28)#28 <= 1
 0 <= x(29)#29 <= 1
 0 <= x(30)#30 <= 1
 0 <= x(31)#31 <= 1
 0 <= x(32)#32 <= 1
 0 <= x(33)#33 <= 1
 0 <= x(34)#34 <= 1
 0 <= x(35)#35 <= 1
 0 <= x(36)#36 <= 1
 0 <= x(37)#37 <= 1
 0 <= x(38)#38 <= 1
 0 <= x(39)#39 <= 1
 0 <= x(40)#40 <= 1
 0 <= x(41)#41 <= 1
 0 <= x(42)#42 <= 1
 0 <= x(43)#43 <= 1
 0 <= x(44)#44 <= 1
 0 <= x(45)#45 <= 1
 0 <= x(46)#46 <= 1
 0 <= x(47)#47 <= 1
 0 <= x(48)#48 <= 1
 0 <= x(49)#49 <= 1
 0 <= x(50)#50 <= 1
 0 <= x(51)#51 <= 1
 0 <= x(52)#52 <= 1
 0 <= x(53)#53 <= 1
 0 <= x(54)#54 <= 1
 0 <= x(55)#55 <= 1
 0 <= x(56)#56 <= 1
 0 <= x(57)#57 <= 1
 0 <= x(58)#58 <= 1
 0 <= x(59)#59 <= 1
 0 <= x(60)#60 <= 1
 0 <= x(61)#61 <= 1
 0 <= x(62)#62 <= 1
 0 <= x(63)#63 <= 1
 0 <= x(64)#64 <= 1
 0 <= x(65)#65 <= 1
 0 <= x(66)#66 <= 1
 0 <= x(67)#67 <= 1
 0 <= x(68)#68 <= 1
 0 <= x(69)#69 <= 1
 0 <= x(70)#70 <= 1
 0 <= x(71)#71 <= 1
 0 <= x(72)#72 <= 1
 0 <= x(73)#73 <= 1
 0 <= x(74)#74 <= 1
 0 <= x(75)#75 <= 1
 0 <= x(76)#76 <= 1
 0 <= x(77)#77 <= 1
 0 <= x(78)#78 <= 1
 0 <= x(79)#79 <= 1
 0 <= x(80)#80 <= 1
 0 <= x(81)#81 <= 1
 0 <= x(82)#82 <= 1
 0 <= x(83)#83 <= 1
 0 <= x(84)#84 <= 1
 0 <= x(85)#85 <= 1
 0 <= x(86)#86 <= 1
 0 <= x(87)#87 <= 1
 0 <= x(88)#88 <= 1
 0 <= x(89)#89 <= 1
 0 <= x(90)#90 <= 1
 0 <= x(91)#91 <= 1
 0 <= x(92)#92 <= 1
 0 <= x(93)#93 <= 1
 0 <= x(94)#94 <= 1
 0 <= x(95)#95 <= 1
 0 <= x(96)#96 <= 1
 0 <= x(97)#97 <= 1
 0 <= x(98)#98 <= 1
 0 <= x(99)#99 <= 1
Generals
 x(0)#0  x(1)#1  x(2)#2  x(3)#3  x(4)#4  x(5)#5  x(6)#6  x(7)#7  x(8)#8 
 x(9)#9  x(10)#10  x(11)#11  x(12)#12  x(13)#13  x(14)#14  x(15)#15  x(16)#16 
 x(17)#17  x(18)#18  x(19)#19  x(20)#20  x(21)#21  x(22)#22  x(23)#23 
 x(24)#24  x(25)#25  x(26)#26  x(27)#27  x(28)#28  x(29)#29  x(30)#30 
 x(31)#31  x(32)#32  x(33)#33  x(34)#34  x(35)#35  x(36)#36  x(37)#37 
 x(38)#38  x(39)#39  x(40)#40  x(41)#41  x(42)#42  x(43)#43  x(44)#44 
 x(45)#45  x(46)#46  x(47)#47  x(48)#48  x(49)#49  x(50)#50  x(51)#51 
 x(52)#52  x(53)#53  x(54)#54  x(55)#55  x(56)#56  x(57)#57  x(58)#58 
 x(59)#59  x(60)#60  x(61)#61  x(62)#62  x(63)#63  x(64)#64  x(65)#65 
 x(66)#66  x(67)#67  x(68)#68  x(69)#69  x(70)#70  x(71)#71  x(72)#72 
 x(73)#73  x(74)#74  x(75)#75  x(76)#76  x(77)#77  x(78)#78  x(79)#79 
 x(80)#80  x(81)#81  x(82)#82  x(83)#83  x(84)#84  x(85)#85  x(86)#86 
 x(87)#87  x(88)#88  x(89)#89  x(90)#90  x(91)#91  x(92)#92  x(93)#93 
 x(94)#94  x(95)#95  x(96)#96  x(97)#97  x(98)#98  x(99)#99 
End
